/*********************************************
 * OPL 12.9.0.0 Data
 * Author: Justine
 * Creation Date: 11 janv. 2022 at 10:01:36
 *********************************************/
nb_trans = 7;
nb_freq = 10;
offset = [  [0, 3, 0, 0, 2, 0, 0],
			[0, 0, 2, 1, 2, 0, 0],
			[0, 0, 0, 3, 1, 0, 0],
			[0, 0, 0, 0, 0, 0, 0],
			[0, 0, 0, 0, 0, 0, 0],
			[0, 0, 1, 2, 0, 0, 0],
			[0, 3, 2, 0, 0, 0, 0]];